RAW/CMTQ/fspd/CMT7Q.vrp_seed-2.out
900.6920473	13.799	29.847
