RAW/CMTQ/fspd/CMT7Q.vrp_seed-2.sol
Route #1: 45 29 48 47 5 15 57 27
Route #2: 7 14 59 19 54 13
Route #3: 68 62 22 64 42 1 73
Route #4: 38 65 66 11 53 35 8
Route #5: 17 40 44 3 24 49 16 51
Route #6: 9 25 55 18 50 32
Route #7: 30 74 21 69 61 28 2
Route #8: 67 34 46 52 4 75
Route #9: 63 23 56 41 43 33 6
Route #10: 12 72 39 31 10 58 26
Route #11: 36 71 60 70 20 37
Cost 900.692047